(declare-const p7 Real)
(declare-const p1 Real)
(declare-const p9 Real)
(declare-const p11 Real)
(declare-const p10 Real)
(declare-const p3 Real)
(declare-const p6 Real)
(declare-const p12 Real)
(declare-const p4 Real)
(declare-const income Real)
(declare-const p8 Real)
(declare-const fee_bl Real)
(declare-const p5 Real)
(declare-const p2 Real)
(assert (= p1 (* 0.014 (ite (> income 9600) 9600 income))))
(assert (= p2 (ite (> income 9600) (* 0.032 (- (ite (> income 14400) 14400 income) 9600)) 0)))
(assert (= p3 (ite (> income 14400) (* 0.055 (- (ite (> income 19200) 19200 income) 14400)) 0)))
(assert (= p4 (ite (> income 19200) (* 0.064 (- (ite (> income 24000) 24000 income) 19200)) 0)))
(assert (= p5 (ite (> income 24000) (* 0.068 (- (ite (> income 36000) 36000 income) 24000)) 0)))
(assert (= p6 (ite (> income 36000) (* 0.072 (- (ite (> income 48000) 48000 income) 36000)) 0)))
(assert (= p7 (ite (> income 48000) (* 0.076 (- (ite (> income 125000) 125000 income) 48000)) 0)))
(assert (= p8 (ite (> income 125000) (* 0.079 (- (ite (> income 175000) 175000 income) 125000)) 0)))
(assert (= p9 (ite (> income 175000) (* 0.0825 (- (ite (> income 225000) 225000 income) 175000)) 0)))
(assert (= p10 (ite (> income 225000) (* 0.09 (- (ite (> income 275000) 275000 income) 225000)) 0)))
(assert (= p11 (ite (> income 275000) (* 0.10 (- (ite (> income 325000) 325000 income) 275000)) 0)))
(assert (= p12 (ite (> income 325000) (* 0.11 (- income 325000)) 0)))
(assert (= fee_bl (+ (+ (+ (+ (+ (+ (+ (+ (+ (+ (+ p1 p2) p3) p4) p5) p6) p7) p8) p9) p10) p11) p12)))